#BEGIN: [Fri Oct 28 11:37:00 2022]
#HOST: mini01.local
#TIMELIMIT: 10800
#MEMLIMIT: 0
#FREQ: 10
#SOLVER: anSolverAsp221027
#CSP: benchmark/automata-network/star_asp/star14.lp
#K: 28
#COMMAND: /Users/soh/app/finding_attractors/incremental-finding.sh benchmark/automata-network/star_asp/star14.lp 28
benchmark/automata-network/star_asp/star14.lp 1
-e %----- The attractor computed for benchmark/automata-network/star_asp/star14.lp 
 %----- The size of the attractor = 1 

clingo version 5.4.0
Reading from ...from_paper2017/scripts/fixed-points.lp ...
Solving...
UNSATISFIABLE

Models       : 0
Calls        : 1
Time         : 0.011s (Solving: 0.00s 1st Model: 0.00s Unsat: 0.00s)
CPU Time     : 0.006s
benchmark/automata-network/star_asp/star14.lp 2
-e %----- The attractor computed for benchmark/automata-network/star_asp/star14.lp 
 %----- The size of the attractor = 2 
-e   %----- The attractor computed with Asynchronous Dynamics 

-e CMD: clingo /Users/soh/app/finding_attractors/01_original_from_paper2017/scripts/asynch.lp /Users/soh/app/finding_attractors/02_attractors-new/with-cycle/attractors-preF.lp /Users/soh/app/finding_attractors/02_attractors-new/with-cycle/attractors-postF.lp benchmark/automata-network/star_asp/star14.lp --const n=2 0

clingo version 5.4.0
Reading from ...ginal_from_paper2017/scripts/asynch.lp ...
Solving...
UNSATISFIABLE

Models       : 0
Calls        : 1
Time         : 0.054s (Solving: 0.00s 1st Model: 0.00s Unsat: 0.00s)
CPU Time     : 0.049s
[ Calling Python ]
[ Solving ready ]
*** Found: 0; skipped: 0
benchmark/automata-network/star_asp/star14.lp 3
-e %----- The attractor computed for benchmark/automata-network/star_asp/star14.lp 
 %----- The size of the attractor = 3 
-e   %----- The attractor computed with Asynchronous Dynamics 

-e CMD: clingo /Users/soh/app/finding_attractors/01_original_from_paper2017/scripts/asynch.lp /Users/soh/app/finding_attractors/02_attractors-new/with-cycle/attractors-preF.lp /Users/soh/app/finding_attractors/02_attractors-new/with-cycle/attractors-postF.lp benchmark/automata-network/star_asp/star14.lp --const n=3 0

clingo version 5.4.0
Reading from ...ginal_from_paper2017/scripts/asynch.lp ...
Solving...
UNSATISFIABLE

Models       : 0
Calls        : 1
Time         : 0.083s (Solving: 0.00s 1st Model: 0.00s Unsat: 0.00s)
CPU Time     : 0.077s
[ Calling Python ]
[ Solving ready ]
*** Found: 0; skipped: 0
benchmark/automata-network/star_asp/star14.lp 4
-e %----- The attractor computed for benchmark/automata-network/star_asp/star14.lp 
 %----- The size of the attractor = 4 
-e   %----- The attractor computed with Asynchronous Dynamics 

-e CMD: clingo /Users/soh/app/finding_attractors/01_original_from_paper2017/scripts/asynch.lp /Users/soh/app/finding_attractors/02_attractors-new/with-cycle/attractors-preF.lp /Users/soh/app/finding_attractors/02_attractors-new/with-cycle/attractors-postF.lp benchmark/automata-network/star_asp/star14.lp --const n=4 0

clingo version 5.4.0
Reading from ...ginal_from_paper2017/scripts/asynch.lp ...
Solving...
UNSATISFIABLE

Models       : 0
Calls        : 1
Time         : 0.136s (Solving: 0.01s 1st Model: 0.00s Unsat: 0.01s)
CPU Time     : 0.130s
[ Calling Python ]
[ Solving ready ]
*** Found: 0; skipped: 0
benchmark/automata-network/star_asp/star14.lp 5
-e %----- The attractor computed for benchmark/automata-network/star_asp/star14.lp 
 %----- The size of the attractor = 5 
-e   %----- The attractor computed with Asynchronous Dynamics 

-e CMD: clingo /Users/soh/app/finding_attractors/01_original_from_paper2017/scripts/asynch.lp /Users/soh/app/finding_attractors/02_attractors-new/with-cycle/attractors-preF.lp /Users/soh/app/finding_attractors/02_attractors-new/with-cycle/attractors-postF.lp benchmark/automata-network/star_asp/star14.lp --const n=5 0

clingo version 5.4.0
Reading from ...ginal_from_paper2017/scripts/asynch.lp ...
Solving...
UNSATISFIABLE

Models       : 0
Calls        : 1
Time         : 0.178s (Solving: 0.02s 1st Model: 0.00s Unsat: 0.02s)
CPU Time     : 0.171s
[ Calling Python ]
[ Solving ready ]
*** Found: 0; skipped: 0
benchmark/automata-network/star_asp/star14.lp 6
-e %----- The attractor computed for benchmark/automata-network/star_asp/star14.lp 
 %----- The size of the attractor = 6 
-e   %----- The attractor computed with Asynchronous Dynamics 

-e CMD: clingo /Users/soh/app/finding_attractors/01_original_from_paper2017/scripts/asynch.lp /Users/soh/app/finding_attractors/02_attractors-new/with-cycle/attractors-preF.lp /Users/soh/app/finding_attractors/02_attractors-new/with-cycle/attractors-postF.lp benchmark/automata-network/star_asp/star14.lp --const n=6 0

clingo version 5.4.0
Reading from ...ginal_from_paper2017/scripts/asynch.lp ...
Solving...
UNSATISFIABLE

Models       : 0
Calls        : 1
Time         : 0.199s (Solving: 0.03s 1st Model: 0.00s Unsat: 0.03s)
CPU Time     : 0.194s
[ Calling Python ]
[ Solving ready ]
*** Found: 0; skipped: 0
benchmark/automata-network/star_asp/star14.lp 7
-e %----- The attractor computed for benchmark/automata-network/star_asp/star14.lp 
 %----- The size of the attractor = 7 
-e   %----- The attractor computed with Asynchronous Dynamics 

-e CMD: clingo /Users/soh/app/finding_attractors/01_original_from_paper2017/scripts/asynch.lp /Users/soh/app/finding_attractors/02_attractors-new/with-cycle/attractors-preF.lp /Users/soh/app/finding_attractors/02_attractors-new/with-cycle/attractors-postF.lp benchmark/automata-network/star_asp/star14.lp --const n=7 0

clingo version 5.4.0
Reading from ...ginal_from_paper2017/scripts/asynch.lp ...
Solving...
UNSATISFIABLE

Models       : 0
Calls        : 1
Time         : 0.350s (Solving: 0.06s 1st Model: 0.00s Unsat: 0.06s)
CPU Time     : 0.344s
[ Calling Python ]
[ Solving ready ]
*** Found: 0; skipped: 0
benchmark/automata-network/star_asp/star14.lp 8
-e %----- The attractor computed for benchmark/automata-network/star_asp/star14.lp 
 %----- The size of the attractor = 8 
-e   %----- The attractor computed with Asynchronous Dynamics 

-e CMD: clingo /Users/soh/app/finding_attractors/01_original_from_paper2017/scripts/asynch.lp /Users/soh/app/finding_attractors/02_attractors-new/with-cycle/attractors-preF.lp /Users/soh/app/finding_attractors/02_attractors-new/with-cycle/attractors-postF.lp benchmark/automata-network/star_asp/star14.lp --const n=8 0

clingo version 5.4.0
Reading from ...ginal_from_paper2017/scripts/asynch.lp ...
Solving...
UNSATISFIABLE

Models       : 0
Calls        : 1
Time         : 0.676s (Solving: 0.13s 1st Model: 0.00s Unsat: 0.13s)
CPU Time     : 0.669s
[ Calling Python ]
[ Solving ready ]
*** Found: 0; skipped: 0
benchmark/automata-network/star_asp/star14.lp 9
-e %----- The attractor computed for benchmark/automata-network/star_asp/star14.lp 
 %----- The size of the attractor = 9 
-e   %----- The attractor computed with Asynchronous Dynamics 

-e CMD: clingo /Users/soh/app/finding_attractors/01_original_from_paper2017/scripts/asynch.lp /Users/soh/app/finding_attractors/02_attractors-new/with-cycle/attractors-preF.lp /Users/soh/app/finding_attractors/02_attractors-new/with-cycle/attractors-postF.lp benchmark/automata-network/star_asp/star14.lp --const n=9 0

clingo version 5.4.0
Reading from ...ginal_from_paper2017/scripts/asynch.lp ...
Solving...
UNSATISFIABLE

Models       : 0
Calls        : 1
Time         : 0.952s (Solving: 0.31s 1st Model: 0.00s Unsat: 0.31s)
CPU Time     : 0.945s
[ Calling Python ]
[ Solving ready ]
*** Found: 0; skipped: 0
benchmark/automata-network/star_asp/star14.lp 10
-e %----- The attractor computed for benchmark/automata-network/star_asp/star14.lp 
 %----- The size of the attractor = 10 
-e   %----- The attractor computed with Asynchronous Dynamics 

-e CMD: clingo /Users/soh/app/finding_attractors/01_original_from_paper2017/scripts/asynch.lp /Users/soh/app/finding_attractors/02_attractors-new/with-cycle/attractors-preF.lp /Users/soh/app/finding_attractors/02_attractors-new/with-cycle/attractors-postF.lp benchmark/automata-network/star_asp/star14.lp --const n=10 0

clingo version 5.4.0
Reading from ...ginal_from_paper2017/scripts/asynch.lp ...
Solving...
UNSATISFIABLE

Models       : 0
Calls        : 1
Time         : 1.741s (Solving: 0.80s 1st Model: 0.00s Unsat: 0.80s)
CPU Time     : 1.735s
[ Calling Python ]
[ Solving ready ]
*** Found: 0; skipped: 0
benchmark/automata-network/star_asp/star14.lp 11
-e %----- The attractor computed for benchmark/automata-network/star_asp/star14.lp 
 %----- The size of the attractor = 11 
-e   %----- The attractor computed with Asynchronous Dynamics 

-e CMD: clingo /Users/soh/app/finding_attractors/01_original_from_paper2017/scripts/asynch.lp /Users/soh/app/finding_attractors/02_attractors-new/with-cycle/attractors-preF.lp /Users/soh/app/finding_attractors/02_attractors-new/with-cycle/attractors-postF.lp benchmark/automata-network/star_asp/star14.lp --const n=11 0

clingo version 5.4.0
Reading from ...ginal_from_paper2017/scripts/asynch.lp ...
Solving...
UNSATISFIABLE

Models       : 0
Calls        : 1
Time         : 3.174s (Solving: 1.82s 1st Model: 0.00s Unsat: 1.82s)
CPU Time     : 3.167s
[ Calling Python ]
[ Solving ready ]
*** Found: 0; skipped: 0
benchmark/automata-network/star_asp/star14.lp 12
-e %----- The attractor computed for benchmark/automata-network/star_asp/star14.lp 
 %----- The size of the attractor = 12 
-e   %----- The attractor computed with Asynchronous Dynamics 

-e CMD: clingo /Users/soh/app/finding_attractors/01_original_from_paper2017/scripts/asynch.lp /Users/soh/app/finding_attractors/02_attractors-new/with-cycle/attractors-preF.lp /Users/soh/app/finding_attractors/02_attractors-new/with-cycle/attractors-postF.lp benchmark/automata-network/star_asp/star14.lp --const n=12 0

clingo version 5.4.0
Reading from ...ginal_from_paper2017/scripts/asynch.lp ...
Solving...
UNSATISFIABLE

Models       : 0
Calls        : 1
Time         : 6.503s (Solving: 4.56s 1st Model: 0.00s Unsat: 4.56s)
CPU Time     : 6.495s
[ Calling Python ]
[ Solving ready ]
*** Found: 0; skipped: 0
benchmark/automata-network/star_asp/star14.lp 13
-e %----- The attractor computed for benchmark/automata-network/star_asp/star14.lp 
 %----- The size of the attractor = 13 
-e   %----- The attractor computed with Asynchronous Dynamics 

-e CMD: clingo /Users/soh/app/finding_attractors/01_original_from_paper2017/scripts/asynch.lp /Users/soh/app/finding_attractors/02_attractors-new/with-cycle/attractors-preF.lp /Users/soh/app/finding_attractors/02_attractors-new/with-cycle/attractors-postF.lp benchmark/automata-network/star_asp/star14.lp --const n=13 0

clingo version 5.4.0
Reading from ...ginal_from_paper2017/scripts/asynch.lp ...
Solving...
UNSATISFIABLE

Models       : 0
Calls        : 1
Time         : 11.941s (Solving: 9.34s 1st Model: 0.00s Unsat: 9.34s)
CPU Time     : 11.930s
[ Calling Python ]
[ Solving ready ]
*** Found: 0; skipped: 0
benchmark/automata-network/star_asp/star14.lp 14
-e %----- The attractor computed for benchmark/automata-network/star_asp/star14.lp 
 %----- The size of the attractor = 14 
-e   %----- The attractor computed with Asynchronous Dynamics 

-e CMD: clingo /Users/soh/app/finding_attractors/01_original_from_paper2017/scripts/asynch.lp /Users/soh/app/finding_attractors/02_attractors-new/with-cycle/attractors-preF.lp /Users/soh/app/finding_attractors/02_attractors-new/with-cycle/attractors-postF.lp benchmark/automata-network/star_asp/star14.lp --const n=14 0

clingo version 5.4.0
Reading from ...ginal_from_paper2017/scripts/asynch.lp ...
Solving...
UNSATISFIABLE

Models       : 0
Calls        : 1
Time         : 22.968s (Solving: 19.43s 1st Model: 0.00s Unsat: 19.43s)
CPU Time     : 22.952s
[ Calling Python ]
[ Solving ready ]
*** Found: 0; skipped: 0
benchmark/automata-network/star_asp/star14.lp 15
-e %----- The attractor computed for benchmark/automata-network/star_asp/star14.lp 
 %----- The size of the attractor = 15 
-e   %----- The attractor computed with Asynchronous Dynamics 

-e CMD: clingo /Users/soh/app/finding_attractors/01_original_from_paper2017/scripts/asynch.lp /Users/soh/app/finding_attractors/02_attractors-new/with-cycle/attractors-preF.lp /Users/soh/app/finding_attractors/02_attractors-new/with-cycle/attractors-postF.lp benchmark/automata-network/star_asp/star14.lp --const n=15 0

clingo version 5.4.0
Reading from ...ginal_from_paper2017/scripts/asynch.lp ...
Solving...
UNSATISFIABLE

Models       : 0
Calls        : 1
Time         : 21.457s (Solving: 16.79s 1st Model: 0.00s Unsat: 16.79s)
CPU Time     : 21.441s
[ Calling Python ]
[ Solving ready ]
*** Found: 0; skipped: 0
benchmark/automata-network/star_asp/star14.lp 16
-e %----- The attractor computed for benchmark/automata-network/star_asp/star14.lp 
 %----- The size of the attractor = 16 
-e   %----- The attractor computed with Asynchronous Dynamics 

-e CMD: clingo /Users/soh/app/finding_attractors/01_original_from_paper2017/scripts/asynch.lp /Users/soh/app/finding_attractors/02_attractors-new/with-cycle/attractors-preF.lp /Users/soh/app/finding_attractors/02_attractors-new/with-cycle/attractors-postF.lp benchmark/automata-network/star_asp/star14.lp --const n=16 0

clingo version 5.4.0
Reading from ...ginal_from_paper2017/scripts/asynch.lp ...
Solving...
UNSATISFIABLE

Models       : 0
Calls        : 1
Time         : 103.294s (Solving: 97.34s 1st Model: 0.00s Unsat: 97.34s)
CPU Time     : 103.247s
[ Calling Python ]
[ Solving ready ]
*** Found: 0; skipped: 0
benchmark/automata-network/star_asp/star14.lp 17
-e %----- The attractor computed for benchmark/automata-network/star_asp/star14.lp 
 %----- The size of the attractor = 17 
-e   %----- The attractor computed with Asynchronous Dynamics 

-e CMD: clingo /Users/soh/app/finding_attractors/01_original_from_paper2017/scripts/asynch.lp /Users/soh/app/finding_attractors/02_attractors-new/with-cycle/attractors-preF.lp /Users/soh/app/finding_attractors/02_attractors-new/with-cycle/attractors-postF.lp benchmark/automata-network/star_asp/star14.lp --const n=17 0

clingo version 5.4.0
Reading from ...ginal_from_paper2017/scripts/asynch.lp ...
Solving...
UNSATISFIABLE

Models       : 0
Calls        : 1
Time         : 36.143s (Solving: 27.92s 1st Model: 0.00s Unsat: 27.92s)
CPU Time     : 36.102s
[ Calling Python ]
[ Solving ready ]
*** Found: 0; skipped: 0
benchmark/automata-network/star_asp/star14.lp 18
-e %----- The attractor computed for benchmark/automata-network/star_asp/star14.lp 
 %----- The size of the attractor = 18 
-e   %----- The attractor computed with Asynchronous Dynamics 

-e CMD: clingo /Users/soh/app/finding_attractors/01_original_from_paper2017/scripts/asynch.lp /Users/soh/app/finding_attractors/02_attractors-new/with-cycle/attractors-preF.lp /Users/soh/app/finding_attractors/02_attractors-new/with-cycle/attractors-postF.lp benchmark/automata-network/star_asp/star14.lp --const n=18 0

clingo version 5.4.0
Reading from ...ginal_from_paper2017/scripts/asynch.lp ...
Solving...
UNSATISFIABLE

Models       : 0
Calls        : 1
Time         : 326.116s (Solving: 315.82s 1st Model: 0.00s Unsat: 315.82s)
CPU Time     : 325.963s
[ Calling Python ]
[ Solving ready ]
*** Found: 0; skipped: 0
benchmark/automata-network/star_asp/star14.lp 19
-e %----- The attractor computed for benchmark/automata-network/star_asp/star14.lp 
 %----- The size of the attractor = 19 
-e   %----- The attractor computed with Asynchronous Dynamics 

-e CMD: clingo /Users/soh/app/finding_attractors/01_original_from_paper2017/scripts/asynch.lp /Users/soh/app/finding_attractors/02_attractors-new/with-cycle/attractors-preF.lp /Users/soh/app/finding_attractors/02_attractors-new/with-cycle/attractors-postF.lp benchmark/automata-network/star_asp/star14.lp --const n=19 0

clingo version 5.4.0
Reading from ...ginal_from_paper2017/scripts/asynch.lp ...
Solving...
UNSATISFIABLE

Models       : 0
Calls        : 1
Time         : 35.622s (Solving: 22.83s 1st Model: 0.00s Unsat: 22.83s)
CPU Time     : 35.601s
[ Calling Python ]
[ Solving ready ]
*** Found: 0; skipped: 0
benchmark/automata-network/star_asp/star14.lp 20
-e %----- The attractor computed for benchmark/automata-network/star_asp/star14.lp 
 %----- The size of the attractor = 20 
-e   %----- The attractor computed with Asynchronous Dynamics 

-e CMD: clingo /Users/soh/app/finding_attractors/01_original_from_paper2017/scripts/asynch.lp /Users/soh/app/finding_attractors/02_attractors-new/with-cycle/attractors-preF.lp /Users/soh/app/finding_attractors/02_attractors-new/with-cycle/attractors-postF.lp benchmark/automata-network/star_asp/star14.lp --const n=20 0

clingo version 5.4.0
Reading from ...ginal_from_paper2017/scripts/asynch.lp ...
Solving...
UNSATISFIABLE

Models       : 0
Calls        : 1
Time         : 9367.886s (Solving: 9351.32s 1st Model: 0.00s Unsat: 9351.32s)
CPU Time     : 9363.490s
[ Calling Python ]
[ Solving ready ]
*** Found: 0; skipped: 0
benchmark/automata-network/star_asp/star14.lp 21
-e %----- The attractor computed for benchmark/automata-network/star_asp/star14.lp 
 %----- The size of the attractor = 21 
-e   %----- The attractor computed with Asynchronous Dynamics 

-e CMD: clingo /Users/soh/app/finding_attractors/01_original_from_paper2017/scripts/asynch.lp /Users/soh/app/finding_attractors/02_attractors-new/with-cycle/attractors-preF.lp /Users/soh/app/finding_attractors/02_attractors-new/with-cycle/attractors-postF.lp benchmark/automata-network/star_asp/star14.lp --const n=21 0

clingo version 5.4.0
Reading from ...ginal_from_paper2017/scripts/asynch.lp ...
Solving...
UNSATISFIABLE

Models       : 0
Calls        : 1
Time         : 36.630s (Solving: 20.56s 1st Model: 0.00s Unsat: 20.56s)
CPU Time     : 36.608s
[ Calling Python ]
[ Solving ready ]
*** Found: 0; skipped: 0
benchmark/automata-network/star_asp/star14.lp 22
-e %----- The attractor computed for benchmark/automata-network/star_asp/star14.lp 
 %----- The size of the attractor = 22 
-e   %----- The attractor computed with Asynchronous Dynamics 

-e CMD: clingo /Users/soh/app/finding_attractors/01_original_from_paper2017/scripts/asynch.lp /Users/soh/app/finding_attractors/02_attractors-new/with-cycle/attractors-preF.lp /Users/soh/app/finding_attractors/02_attractors-new/with-cycle/attractors-postF.lp benchmark/automata-network/star_asp/star14.lp --const n=22 0

clingo version 5.4.0
Reading from ...ginal_from_paper2017/scripts/asynch.lp ...
Solving...
TIMEOUT CPU 10800 MEM 0 MAXMEM 0
#RESULT: UNSAT
#FIN: TO
#CPU: 10800
#MAXMEM: 0
*** Info : (clingo): Sending shutdown signal...
c 07652 killed(2). 07653 killed(2). 07785 killed(2). 07784 killed(2). 07652 killed(9). 07653 killed(9). 07785 killed(9). 07784 killed(9). 
#END: [Fri Oct 28 14:37:01 2022]
